NAME: ClusterId_254 
COMMENT : (Gillet and Johnson) 
TYPE : CVRP 
DIMENSION: 1 
EDGE_WEIGHT_TYPE: EUC_2D 
CAPACITY: 500 
NODE_COORD_SECTION 
255 0 75 
57 7 73 
DEMAND_SECTION 
255 60
57 73
DEPOT_SECTION 
255
 -1
EOF